c Random Network
p max    10      20
n         1  s
n        10  t
a       4       1      43
a       1       2      35
a       3       1      24
a       4       7       7
a       1       4      44
a       4       6       1
a       3      10      18
a       9       7       7
a       1       6      22
a       2       5      12
a       4       2      35
a       8       7      33
a       5       2      28
a       7       8      47
a       8       4      42
a       7       9      27
a       1       8      22
a       6       5      48
a       7       3      28
a       1       5      29
